c A SAT instance generated from a 3-CNF formula that had 30 clauses and 15 variables
p cnf 15 30
-7 5 12 0
-6 -8 -14 0
-1 13 -15 0
10 11 6 0
1 -11 8 0
9 -6 5 0
-13 -11 -7 0
11 -8 -9 0
-12 11 2 0
-12 4 7 0
13 1 15 0
3 8 -5 0
4 14 8 0
14 11 -13 0
13 -7 -14 0
6 1 7 0
-6 3 -11 0
-2 4 7 0
-1 -4 -7 0
1 14 6 0
-5 -8 3 0
4 -14 -6 0
11 -15 8 0
12 5 1 0
-14 -4 13 0
-4 10 -1 0
-12 15 -7 0
-14 15 -10 0
-2 -3 -12 0
12 -1 -8 0
%
0

40 90 97 85 10 69 91 47 52 6 85 65 18 55 67
